
Log started (V11.0.0) Sun Apr 13 13:57:10 2008

Tried aggregator 1 time.
Reduced MIP has 220 rows, 4001 columns, and 8020 nonzeros.
Presolve time =    0.03 sec.
Clique table members: 200.
MIP emphasis: balance optimality and feasibility.
MIP search method: dynamic search.
Parallel mode: none, using 1 thread.
Root relaxation solution time =    0.08 sec.

        Nodes                                         Cuts/
   Node  Left     Objective  IInf  Best Integer     Best Node    ItCnt     Gap

*     0+    0                        10169.0000       52.7946      481   99.48%
*     0+    0                           71.0000       52.7946      481   25.64%
      0     0       53.0000    41       71.0000      Fract: 9      529   25.35%
*     0+    0                           70.0000       53.0000      529   24.29%
      0     0       53.0000    39       70.0000     Covers: 1      537   24.29%
*     0+    0                           63.0000       53.0000      537   15.87%
*     0+    0                           62.0000       53.0000      537   14.52%
*     0+    0                           57.0000       53.0000      537    7.02%
*     0+    0                           56.0000       53.0000      537    5.36%

Repeating presolve.
Tried aggregator 1 time.
MIP Presolve eliminated 0 rows and 2069 columns.
Reduced MIP has 220 rows, 1932 columns, and 3882 nonzeros.
Tried aggregator 1 time.
Represolve time =    0.08 sec.
Clique table members: 454.
MIP emphasis: balance optimality and feasibility.
MIP search method: dynamic search.
Parallel mode: none, using 1 thread.
Root relaxation solution time =    0.05 sec.

        Nodes                                         Cuts/
   Node  Left     Objective  IInf  Best Integer     Best Node    ItCnt     Gap

      0     0       53.0000    38       56.0000       53.0000      428    5.36%
      0     2       53.0000    38       56.0000       53.0000      428    5.36%
    100    74       54.2384    55       56.0000       53.0000     3169    5.36%
    200   145       54.0000    35       56.0000       54.0000     6894    3.57%
    300   227       54.0000    47       56.0000       54.0000     9894    3.57%
    400   300    infeasible             56.0000       54.0000    13961    3.57%
*   480+  213                           55.0000       54.0000    17550    1.82%
    500   228       54.0000    38       55.0000       54.0000    18639    1.82%
    600   307       54.0000    35       55.0000       54.0000    23396    1.82%
    700   318       54.0000    55       55.0000       54.0000    26888    1.82%
    800   304    infeasible             55.0000       54.0000    33461    1.82%
    900   296       54.0000   100       55.0000       54.0000    44446    1.82%
   1000   263       54.0000   100       55.0000       54.0000    57518    1.82%
Elapsed time =  12.75 sec. (tree size =  1.29 MB, solutions = 8)
   1100   316    infeasible             55.0000       54.0000    69894    1.82%
   1200   318       54.0000   129       55.0000       54.0000    91759    1.82%
   1300   350       54.0000    65       55.0000       54.0000   109945    1.82%
   1400   418       54.0000   131       55.0000       54.0000   120834    1.82%
   1500   436       54.0000   120       55.0000       54.0000   143857    1.82%
   1600   474       54.0000   109       55.0000       54.0000   160030    1.82%
   1700   534       54.0000   124       55.0000       54.0000   171480    1.82%
   1800   574    infeasible             55.0000       54.0000   187443    1.82%
   1900   618       54.0000   144       55.0000       54.0000   204374    1.82%
   2000   658    infeasible             55.0000       54.0000   220010    1.82%
Elapsed time =  48.00 sec. (tree size =  5.90 MB, solutions = 8)
   2100   710    infeasible             55.0000       54.0000   236017    1.82%
   2200   752       54.0000   120       55.0000       54.0000   252876    1.82%
*  2270+    1                           54.0000       54.0000   260145    0.00%

Cover cuts applied:  874
Mixed integer rounding cuts applied:  14
Zero-half cuts applied:  3
Gomory fractional cuts applied:  6

Solution pool: 9 solutions saved.

MIP - Integer optimal solution:  Objective = 5.4000000000e+001
Solution time =   59.06 sec.  Iterations = 260145  Nodes = 2270


Incumbent solution
Variable Name           Solution Value
Cmax                         54.000000
X_1_11                        1.000000
X_2_4                         1.000000
X_3_20                        1.000000
X_4_2                         1.000000
X_5_3                         1.000000
X_6_13                        1.000000
X_7_12                        1.000000
X_8_8                         1.000000
X_9_2                         1.000000
X_10_3                        1.000000
X_11_7                        1.000000
X_12_20                       1.000000
X_13_5                        1.000000
X_14_14                       1.000000
X_15_8                        1.000000
X_16_8                        1.000000
X_17_15                       1.000000
X_18_20                       1.000000
X_19_18                       1.000000
X_20_13                       1.000000
X_21_20                       1.000000
X_22_1                        1.000000
X_23_6                        1.000000
X_24_19                       1.000000
X_25_4                        1.000000
X_26_12                       1.000000
X_27_6                        1.000000
X_28_19                       1.000000
X_29_4                        1.000000
X_30_7                        1.000000
X_31_1                        1.000000
X_32_18                       1.000000
X_33_1                        1.000000
X_34_18                       1.000000
X_35_6                        1.000000
X_36_3                        1.000000
X_37_1                        1.000000
X_38_13                       1.000000
X_39_16                       1.000000
X_40_13                       1.000000
X_41_8                        1.000000
X_42_17                       1.000000
X_43_18                       1.000000
X_44_16                       1.000000
X_45_11                       1.000000
X_46_2                        1.000000
X_47_11                       1.000000
X_48_14                       1.000000
X_49_5                        1.000000
X_50_9                        1.000000
X_51_8                        1.000000
X_52_20                       1.000000
X_53_17                       1.000000
X_54_7                        1.000000
X_55_19                       1.000000
X_56_4                        1.000000
X_57_2                        1.000000
X_58_1                        1.000000
X_59_17                       1.000000
X_60_4                        1.000000
X_61_12                       1.000000
X_62_20                       1.000000
X_63_9                        1.000000
X_64_4                        1.000000
X_65_2                        1.000000
X_66_1                        1.000000
X_67_12                       1.000000
X_68_14                       1.000000
X_69_16                       1.000000
X_70_15                       1.000000
X_71_3                        1.000000
X_72_18                       1.000000
X_73_12                       1.000000
X_74_7                        1.000000
X_75_16                       1.000000
X_76_8                        1.000000
X_77_12                       1.000000
X_78_16                       1.000000
X_79_5                        1.000000
X_80_13                       1.000000
X_81_5                        1.000000
X_82_10                       1.000000
X_83_13                       1.000000
X_84_13                       1.000000
X_85_10                       1.000000
X_86_17                       1.000000
X_87_3                        1.000000
X_88_5                        1.000000
X_89_13                       1.000000
X_90_2                        1.000000
X_91_5                        1.000000
X_92_9                        1.000000
X_93_10                       1.000000
X_94_5                        1.000000
X_95_16                       1.000000
X_96_8                        1.000000
X_97_11                       1.000000
X_98_16                       1.000000
X_99_17                       1.000000
X_100_6                       1.000000
X_101_6                       1.000000
X_102_13                      1.000000
X_103_5                       1.000000
X_104_10                      1.000000
X_105_13                      1.000000
X_106_20                      1.000000
X_107_1                       1.000000
X_108_2                       1.000000
X_109_18                      1.000000
X_110_4                       1.000000
X_111_18                      1.000000
X_112_3                       1.000000
X_113_5                       1.000000
X_114_7                       1.000000
X_115_19                      1.000000
X_116_2                       1.000000
X_117_20                      1.000000
X_118_10                      1.000000
X_119_5                       1.000000
X_120_16                      1.000000
X_121_20                      1.000000
X_122_15                      1.000000
X_123_18                      1.000000
X_124_17                      1.000000
X_125_8                       1.000000
X_126_1                       1.000000
X_127_19                      1.000000
X_128_6                       1.000000
X_129_1                       1.000000
X_130_3                       1.000000
X_131_9                       1.000000
X_132_14                      1.000000
X_133_18                      1.000000
X_134_7                       1.000000
X_135_18                      1.000000
X_136_3                       1.000000
X_137_13                      1.000000
X_138_4                       1.000000
X_139_11                      1.000000
X_140_3                       1.000000
X_141_19                      1.000000
X_142_8                       1.000000
X_143_15                      1.000000
X_144_20                      1.000000
X_145_5                       1.000000
X_146_2                       1.000000
X_147_6                       1.000000
X_148_6                       1.000000
X_149_11                      1.000000
X_150_4                       1.000000
X_151_15                      1.000000
X_152_12                      1.000000
X_153_20                      1.000000
X_154_12                      1.000000
X_155_11                      1.000000
X_156_6                       1.000000
X_157_20                      1.000000
X_158_15                      1.000000
X_159_7                       1.000000
X_160_3                       1.000000
X_161_2                       1.000000
X_162_9                       1.000000
X_163_19                      1.000000
X_164_19                      1.000000
X_165_14                      1.000000
X_166_9                       1.000000
X_167_14                      1.000000
X_168_11                      1.000000
X_169_9                       1.000000
X_170_18                      1.000000
X_171_8                       1.000000
X_172_10                      1.000000
X_173_8                       1.000000
X_174_15                      1.000000
X_175_20                      1.000000
X_176_14                      1.000000
X_177_3                       1.000000
X_178_19                      1.000000
X_179_16                      1.000000
X_180_11                      1.000000
X_181_12                      1.000000
X_182_6                       1.000000
X_183_14                      1.000000
X_184_12                      1.000000
X_185_17                      1.000000
X_186_6                       1.000000
X_187_17                      1.000000
X_188_5                       1.000000
X_189_8                       1.000000
X_190_1                       1.000000
X_191_10                      1.000000
X_192_5                       1.000000
X_193_14                      1.000000
X_194_19                      1.000000
X_195_7                       1.000000
X_196_16                      1.000000
X_197_3                       1.000000
X_198_1                       1.000000
X_199_3                       1.000000
X_200_18                      1.000000
All other variables in the range 1-4001 are 0.
